NAME          SET_PARTITION
ROWS
 N  COST
 E  ELEM1
 E  ELEM2
 E  ELEM3
 E  ELEM4
 E  ELEM5
 E  ELEM6
 E  ELEM7
 E  ELEM8
 E  ELEM9
 E  ELEM10
 E  ELEM11
 E  ELEM12
 E  ELEM13
 E  ELEM14
 E  ELEM15
 E  ELEM16
 E  ELEM17
 E  ELEM18
 E  ELEM19
 E  ELEM20
 E  ELEM21
 E  ELEM22
 E  ELEM23
 E  ELEM24
 E  ELEM25
 E  ELEM26
 E  ELEM27
 E  ELEM28
 E  ELEM29
 E  ELEM30
 E  ELEM31
 E  ELEM32
 E  ELEM33
 E  ELEM34
 E  ELEM35
 E  ELEM36
 E  ELEM37
 E  ELEM38
 E  ELEM39
 E  ELEM40
COLUMNS
    X1       COST      17         ELEM4     1          ELEM10    1          
    X1       ELEM34    1          
    X2       COST      26         ELEM5     1          ELEM6     1          
    X2       ELEM7     1          ELEM22    1          
    X2       ELEM32    1          ELEM35    1          
    X2       ELEM36    1          
    X3       COST      99         ELEM2     1          ELEM32    1          
    X3       ELEM35    1          
    X4       COST      51         ELEM1     1          ELEM5     1          
    X4       ELEM7     1          ELEM9     1          
    X4       ELEM11    1          ELEM15    1          
    X4       ELEM20    1          ELEM24    1          
    X4       ELEM25    1          ELEM35    1          
    X4       ELEM40    1          
    X5       COST      64         ELEM16    1          ELEM23    1          
    X5       ELEM25    1          ELEM30    1          
    X5       ELEM33    1          ELEM36    1          
    X5       ELEM40    1          
    X6       COST      57         ELEM2     1          ELEM8     1          
    X6       ELEM13    1          ELEM14    1          
    X6       ELEM17    1          ELEM18    1          
    X6       ELEM19    1          ELEM21    1          
    X6       ELEM26    1          ELEM28    1          
    X6       ELEM30    1          ELEM32    1          
    X6       ELEM34    1          ELEM37    1          
    X6       ELEM39    1          
    X7       COST      51         ELEM3     1          ELEM4     1          
    X7       ELEM22    1          ELEM27    1          
    X7       ELEM29    1          
    X8       COST      25         ELEM4     1          ELEM11    1          
    X8       ELEM14    1          ELEM19    1          
    X8       ELEM20    1          ELEM22    1          
    X8       ELEM25    1          ELEM26    1          
    X8       ELEM32    1          ELEM39    1          
    X8       ELEM40    1          
    X9       COST      83         ELEM6     1          ELEM10    1          
    X9       ELEM12    1          ELEM16    1          
    X9       ELEM23    1          ELEM31    1          
    X9       ELEM33    1          ELEM36    1          
    X9       ELEM38    1          
    X10      COST      31         ELEM6     1          ELEM12    1          
    X10      ELEM13    1          ELEM18    1          
    X10      ELEM19    1          ELEM21    1          
    X10      ELEM22    1          ELEM26    1          
    X10      ELEM29    1          ELEM37    1          
    X10      ELEM38    1          
    X11      COST      75         ELEM1     1          ELEM2     1          
    X11      ELEM7     1          ELEM9     1          
    X11      ELEM15    1          ELEM20    1          
    X11      ELEM32    1          ELEM35    1          
    X12      COST      2          ELEM3     1          ELEM5     1          
    X12      ELEM8     1          ELEM11    1          
    X12      ELEM14    1          ELEM17    1          
    X12      ELEM24    1          ELEM27    1          
    X12      ELEM28    1          ELEM31    1          
    X12      ELEM39    1          
RHS
    RHS       ELEM1     1       
    RHS       ELEM2     1       
    RHS       ELEM3     1       
    RHS       ELEM4     1       
    RHS       ELEM5     1       
    RHS       ELEM6     1       
    RHS       ELEM7     1       
    RHS       ELEM8     1       
    RHS       ELEM9     1       
    RHS       ELEM10    1       
    RHS       ELEM11    1       
    RHS       ELEM12    1       
    RHS       ELEM13    1       
    RHS       ELEM14    1       
    RHS       ELEM15    1       
    RHS       ELEM16    1       
    RHS       ELEM17    1       
    RHS       ELEM18    1       
    RHS       ELEM19    1       
    RHS       ELEM20    1       
    RHS       ELEM21    1       
    RHS       ELEM22    1       
    RHS       ELEM23    1       
    RHS       ELEM24    1       
    RHS       ELEM25    1       
    RHS       ELEM26    1       
    RHS       ELEM27    1       
    RHS       ELEM28    1       
    RHS       ELEM29    1       
    RHS       ELEM30    1       
    RHS       ELEM31    1       
    RHS       ELEM32    1       
    RHS       ELEM33    1       
    RHS       ELEM34    1       
    RHS       ELEM35    1       
    RHS       ELEM36    1       
    RHS       ELEM37    1       
    RHS       ELEM38    1       
    RHS       ELEM39    1       
    RHS       ELEM40    1       
BOUNDS
 BV BND1      X1
 BV BND1      X2
 BV BND1      X3
 BV BND1      X4
 BV BND1      X5
 BV BND1      X6
 BV BND1      X7
 BV BND1      X8
 BV BND1      X9
 BV BND1      X10
 BV BND1      X11
 BV BND1      X12
ENDATA
